<number of tasks>
25

<cycle time>
21

<task times>
1 4
2 3
3 9
4 5
5 9
6 4
7 8
8 7
9 5
10 1
11 3
12 1
13 5
14 3
15 5
16 3
17 13
18 5
19 2
20 3
21 7
22 5
23 3
24 8
25 4

<precedence relations>
1,3
2,3
3,4
4,5
4,8
5,6
6,7
6,10
7,11
7,12
8,9
8,11
9,10
9,13
11,13
12,15
13,14
14,16
14,19
14,20
15,17
15,22
16,18
17,18
17,23
18,25
19,22
20,21
20,25
21,22
21,24
23,25

<setup times forward>
1,2:2
2,1:2
2,3:2
3,4:1
4,8:2
5,6:2
5,8:2
5,9:1
6,7:1
6,9:3
6,10:1
7,8:1
7,9:2
7,11:2
8,5:2
8,7:1
8,9:3
8,11:1
8,12:1
8,15:1
8,17:3
8,23:3
9,5:1
9,6:3
9,7:2
9,10:2
9,11:4
9,12:2
9,13:1
9,15:4
10,11:2
10,13:1
10,14:2
10,15:2
10,16:2
10,17:2
10,19:1
10,20:2
10,21:2
10,22:1
10,23:2
11,9:4
11,10:2
11,12:2
11,13:3
11,17:4
11,23:4
12,8:1
12,9:2
12,11:2
12,13:1
12,14:2
12,15:2
12,16:2
12,19:1
12,20:2
12,21:2
13,10:1
13,12:1
13,14:1
13,15:3
13,17:1
13,23:1
14,10:2
14,12:2
14,15:4
14,16:4
14,19:1
15,8:1
15,9:4
15,10:2
15,13:3
15,14:4
15,17:4
15,19:3
15,20:4
15,21:4
15,22:1
15,24:2
16,10:2
16,12:2
16,17:4
16,18:2
16,19:3
16,20:4
16,21:4
16,22:1
16,23:4
16,24:2
17,8:3
17,10:2
17,11:4
17,13:1
17,16:4
17,18:2
17,19:1
17,22:3
17,24:2
18,19:1
18,20:2
18,21:2
18,22:1
18,23:2
19,10:1
19,12:1
19,15:3
19,16:3
19,17:1
19,18:1
19,20:1
19,21:1
19,22:2
19,23:1
19,24:1
19,25:1
20,10:2
20,12:2
20,15:4
20,16:4
20,18:2
20,19:1
20,25:2
21,10:2
21,12:2
21,15:4
21,16:4
21,18:2
21,19:1
21,22:3
21,24:2
21,25:2
22,10:1
22,16:1
22,17:3
22,18:1
22,23:3
22,24:1
22,25:1
23,8:3
23,10:2
23,11:4
23,13:1
23,16:4
23,18:2
23,19:1
23,22:3
23,24:2
23,25:2
24,15:2
24,16:2
24,17:2
24,19:1
24,22:1
24,23:2
25,19:1
25,21:2
25,22:1

<setup times backward>
1,1:5
1,2:3
2,1:7
2,2:5
3,1:5
3,2:3
3,3:5
4,1:6
4,2:4
4,3:6
4,4:5
5,1:6
5,2:4
5,3:6
5,4:5
5,5:5
5,8:7
5,9:4
6,1:4
6,2:2
6,3:4
6,4:3
6,5:3
6,6:5
6,8:5
6,9:2
7,1:5
7,2:3
7,3:5
7,4:4
7,5:4
7,6:6
7,7:5
7,8:6
7,9:3
7,10:5
8,1:4
8,2:2
8,3:4
8,4:3
8,5:3
8,6:5
8,7:4
8,8:5
8,12:4
8,15:6
8,17:2
8,23:2
9,1:7
9,2:5
9,3:7
9,4:6
9,5:6
9,6:8
9,7:7
9,8:8
9,9:5
9,11:9
9,12:7
9,15:9
9,17:5
9,23:5
10,1:5
10,2:3
10,3:5
10,4:4
10,5:4
10,6:6
10,7:5
10,8:6
10,9:3
10,10:5
10,11:7
10,12:5
10,13:4
10,14:3
10,15:7
10,16:7
10,17:3
10,18:5
10,19:4
10,20:3
10,21:3
10,22:6
10,23:3
10,24:5
10,25:5
11,1:3
11,2:1
11,3:3
11,4:2
11,5:2
11,6:4
11,7:3
11,8:4
11,9:1
11,10:3
11,11:5
11,12:3
11,15:5
11,17:1
11,23:1
12,1:5
12,2:3
12,3:5
12,4:4
12,5:4
12,6:6
12,7:5
12,8:6
12,9:3
12,10:5
12,11:7
12,12:5
12,13:4
12,14:3
12,16:7
12,19:4
12,20:3
12,21:3
12,24:5
13,1:6
13,2:4
13,3:6
13,4:5
13,5:5
13,6:7
13,7:6
13,8:7
13,9:4
13,10:6
13,11:8
13,12:6
13,13:5
13,15:8
13,17:4
13,23:4
14,1:7
14,2:5
14,3:7
14,4:6
14,5:6
14,6:8
14,7:7
14,8:8
14,9:5
14,10:7
14,11:9
14,12:7
14,13:6
14,14:5
14,15:9
14,17:5
14,23:5
15,1:3
15,2:1
15,3:3
15,4:2
15,5:2
15,6:4
15,7:3
15,8:4
15,9:1
15,10:3
15,11:5
15,12:3
15,13:2
15,14:1
15,15:5
15,16:5
15,19:2
15,20:1
15,21:1
15,24:3
16,1:3
16,2:1
16,3:3
16,4:2
16,5:2
16,6:4
16,7:3
16,8:4
16,9:1
16,10:3
16,11:5
16,12:3
16,13:2
16,14:1
16,15:5
16,16:5
16,17:1
16,19:2
16,20:1
16,21:1
16,22:4
16,23:1
16,24:3
17,1:7
17,2:5
17,3:7
17,4:6
17,5:6
17,6:8
17,7:7
17,8:8
17,9:5
17,10:7
17,11:9
17,12:7
17,13:6
17,14:5
17,15:9
17,16:9
17,17:5
17,19:6
17,20:5
17,21:5
17,22:8
17,24:7
18,1:5
18,2:3
18,3:5
18,4:4
18,5:4
18,6:6
18,7:5
18,8:6
18,9:3
18,10:5
18,11:7
18,12:5
18,13:4
18,14:3
18,15:7
18,16:7
18,17:3
18,18:5
18,19:4
18,20:3
18,21:3
18,22:6
18,23:3
18,24:5
19,1:6
19,2:4
19,3:6
19,4:5
19,5:5
19,6:7
19,7:6
19,8:7
19,9:4
19,10:6
19,11:8
19,12:6
19,13:5
19,14:4
19,15:8
19,16:8
19,17:4
19,18:6
19,19:5
19,20:4
19,21:4
19,23:4
19,24:6
19,25:6
20,1:7
20,2:5
20,3:7
20,4:6
20,5:6
20,6:8
20,7:7
20,8:8
20,9:5
20,10:7
20,11:9
20,12:7
20,13:6
20,14:5
20,15:9
20,16:9
20,17:5
20,18:7
20,19:6
20,20:5
20,23:5
21,1:7
21,2:5
21,3:7
21,4:6
21,5:6
21,6:8
21,7:7
21,8:8
21,9:5
21,10:7
21,11:9
21,12:7
21,13:6
21,14:5
21,15:9
21,16:9
21,17:5
21,18:7
21,19:6
21,20:5
21,21:5
21,23:5
21,25:7
22,1:4
22,2:2
22,3:4
22,4:3
22,5:3
22,6:5
22,7:4
22,8:5
22,9:2
22,10:4
22,11:6
22,12:4
22,13:3
22,14:2
22,15:6
22,16:6
22,17:2
22,18:4
22,19:3
22,20:2
22,21:2
22,22:5
22,23:2
22,24:4
22,25:4
23,1:7
23,2:5
23,3:7
23,4:6
23,5:6
23,6:8
23,7:7
23,8:8
23,9:5
23,10:7
23,11:9
23,12:7
23,13:6
23,14:5
23,15:9
23,16:9
23,17:5
23,18:7
23,19:6
23,20:5
23,21:5
23,22:8
23,23:5
23,24:7
24,1:5
24,2:3
24,3:5
24,4:4
24,5:4
24,6:6
24,7:5
24,8:6
24,9:3
24,10:5
24,11:7
24,12:5
24,13:4
24,14:3
24,15:7
24,16:7
24,17:3
24,18:5
24,19:4
24,20:3
24,21:3
24,22:6
24,23:3
24,24:5
24,25:5
25,1:5
25,2:3
25,3:5
25,4:4
25,5:4
25,6:6
25,7:5
25,8:6
25,9:3
25,10:5
25,11:7
25,12:5
25,13:4
25,14:3
25,15:7
25,16:7
25,17:3
25,18:5
25,19:4
25,20:3
25,21:3
25,22:6
25,23:3
25,24:5
25,25:5

<end>

<optimal SALBP-1 value>
6


<rand seed>
467321153

<Lower Bounds>
Lm1=6
Lms1=6
Lm2=1
Lm3=4
Lm4=7
Best=7

<Optimal Stations (Iterations: 10)>
10
